
Gurobi 10.0.2 (win64, Python) logging started Sun Feb  4 18:06:54 2024

Set parameter Username
Set parameter LogFile to value "C:\Users\ghadi\Downloads\Discrete Optimization Project - Gurobi- Instance 9\Discrete Optimization Project - Instance 9-Log File.log"
Academic license - for non-commercial use only - expires 2024-07-07
Set parameter Threads to value 1
Set parameter Presolve to value 1
Set parameter Method to value 0
Set parameter TimeLimit to value 1200
Set parameter PreSparsify to value 1
Gurobi Optimizer version 10.0.2 build v10.0.2rc0 (win64)

CPU model: 12th Gen Intel(R) Core(TM) i5-1235U, instruction set [SSE2|AVX|AVX2]
Thread count: 10 physical cores, 12 logical processors, using up to 1 threads

Optimize a model with 3299406 rows, 732663 columns and 2488626 nonzeros
Model fingerprint: 0x7be1b776
Variable types: 0 continuous, 732663 integer (732663 binary)
Coefficient statistics:
  Matrix range     [1e+00, 1e+00]
  Objective range  [4e-04, 1e+00]
  Bounds range     [1e+00, 1e+00]
  RHS range        [1e+00, 1e+00]
Presolve removed 2603033 rows and 680531 columns (presolve time = 5s) ...
Presolve removed 2603061 rows and 680531 columns (presolve time = 10s) ...
Sparsify removed 354 nonzeros (0%)
Presolve removed 2603061 rows and 680501 columns
Presolve time: 10.93s
Presolved: 696345 rows, 52162 columns, 2146213 nonzeros
Variable types: 0 continuous, 52162 integer (52161 binary)
Root relaxation presolved: 52162 rows, 748507 columns, 2198375 nonzeros


Root simplex log...

Iteration    Objective       Primal Inf.    Dual Inf.      Time
       0   -0.0000000e+00   0.000000e+00   4.080000e+02     13s
   10930    4.2711825e-02   0.000000e+00   1.202205e+05     15s
   43382    7.5753569e-02   0.000000e+00   2.135324e+03     20s
   60198   -0.0000000e+00   0.000000e+00   0.000000e+00     23s
   60198   -0.0000000e+00   0.000000e+00   0.000000e+00     23s
   60198    0.0000000e+00   0.000000e+00   0.000000e+00     23s

Root relaxation: objective 0.000000e+00, 60198 iterations, 10.76 seconds (23.04 work units)

    Nodes    |    Current Node    |     Objective Bounds      |     Work
 Expl Unexpl |  Obj  Depth IntInf | Incumbent    BestBd   Gap | It/Node Time

     0     0    0.00000    0 1190          -    0.00000      -     -   60s
     0     0    0.00000    0 1390          -    0.00000      -     -  216s
     0     0    0.00000    0 1405          -    0.00000      -     -  343s
     0     0    0.00000    0 1526          -    0.00000      -     -  592s
     0     0    0.00000    0 1530          -    0.00000      -     -  743s
     0     0    0.00000    0 1565          -    0.00000      -     -  986s
     0     0    0.00000    0 1531          -    0.00000      -     - 1135s
     0     0          -    0               -    0.00000      -     - 1200s

Cutting planes:
  Clique: 125
  MIR: 29
  Zero half: 151
  RLT: 3290
  BQP: 2510

Explored 1 nodes (233086 simplex iterations) in 1200.06 seconds (4159.76 work units)
Thread count was 1 (of 12 available processors)

Solution count 0

Time limit reached
Best objective -, best bound 0.000000000000e+00, gap -
Gurobi Optimizer version 10.0.2 build v10.0.2rc0 (win64)

CPU model: 12th Gen Intel(R) Core(TM) i5-1235U, instruction set [SSE2|AVX|AVX2]
Thread count: 10 physical cores, 12 logical processors, using up to 1 threads

Optimize a model with 3299406 rows, 732663 columns and 2488626 nonzeros
Model fingerprint: 0x7be1b776
Variable types: 0 continuous, 732663 integer (732663 binary)
Coefficient statistics:
  Matrix range     [1e+00, 1e+00]
  Objective range  [4e-04, 1e+00]
  Bounds range     [1e+00, 1e+00]
  RHS range        [1e+00, 1e+00]
Presolved: 696345 rows, 52162 columns, 2146213 nonzeros

Continuing optimization...

     0     0    0.00000    0 1281          -    0.00000      -     - 1258s
     0     0    0.00000    0 1342          -    0.00000      -     - 1362s
     0     0    0.00000    0 1342          -    0.00000      -     - 1428s
H    0     0                      19.8360235    0.00000   100%     - 1619s
H    0     0                      19.7377109    0.00000   100%     - 1633s
H    0     0                      19.7201027    0.00000   100%     - 1736s
     0     2    0.00000    0 1342   19.72010    0.00000   100%     - 1736s
     1     3    0.00000    1 1277   19.72010    0.00000   100% 10675 1738s
     2     4    0.00000    1 1049   19.72010    0.00000   100% 10820 1784s
     3     5    0.00000    2 1194   19.72010    0.00000   100%  7383 1788s
     4     6    0.00000    2 1212   19.72010    0.00000   100%  5639 1792s
     5     7    0.00000    3 1078   19.72010    0.00000   100%  6402 1834s
     6     8    0.00000    3 1146   19.72010    0.00000   100%  5435 1839s
     7     9    0.00000    4 1126   19.72010    0.00000   100%  4711 1841s
     8    10    0.00000    4 1117   19.72010    0.00000   100%  6339 1923s
     9    11    0.00000    5 1042   19.72010    0.00000   100%  5895 1968s
    10    12    0.00000    6 1113   19.72010    0.00000   100%  5807 2014s
    11    13    0.01178    6 1339   19.72010    0.00000   100% 10319 2320s

Cutting planes:
  Gomory: 1
  Clique: 25
  MIR: 12
  Zero half: 4
  RLT: 456
  BQP: 47

Explored 12 nodes (446542 simplex iterations) in 1200.13 seconds (3219.97 work units)
Thread count was 1 (of 12 available processors)

Solution count 3: 19.7201 19.7377 19.836 

Time limit reached
Best objective 1.972010271460e+01, best bound 0.000000000000e+00, gap 100.0000%

Gurobi 10.0.2 (win64, Python) logging started Sun Feb  4 21:41:22 2024

Set parameter Username
Set parameter LogFile to value "C:\Users\ghadi\Downloads\Discrete Optimization Project - Gurobi- Instance 9\Discrete Optimization Project - Instance 9-Log File.log"
Academic license - for non-commercial use only - expires 2024-07-07
Set parameter Threads to value 1
Set parameter Presolve to value 1
Set parameter Method to value 0
Set parameter TimeLimit to value 1200
Set parameter PreSparsify to value 1
Gurobi Optimizer version 10.0.2 build v10.0.2rc0 (win64)

CPU model: 12th Gen Intel(R) Core(TM) i5-1235U, instruction set [SSE2|AVX|AVX2]
Thread count: 10 physical cores, 12 logical processors, using up to 1 threads

Optimize a model with 15340994 rows, 1491621 columns and 20820422 nonzeros
Model fingerprint: 0x12ed60c1
Variable types: 0 continuous, 1491621 integer (1491621 binary)
Coefficient statistics:
  Matrix range     [1e+00, 1e+00]
  Objective range  [5e-05, 3e-01]
  Bounds range     [1e+00, 1e+00]
  RHS range        [1e+00, 1e+00]
Presolve removed 8135648 rows and 1271195 columns (presolve time = 5s) ...
Presolve removed 8802210 rows and 1271226 columns (presolve time = 10s) ...
Presolve removed 8802210 rows and 1271227 columns (presolve time = 15s) ...
Presolve removed 9334376 rows and 1271227 columns (presolve time = 20s) ...

Gurobi 10.0.2 (win64, Python) logging started Sun Feb  4 22:13:18 2024

Set parameter Username
Set parameter LogFile to value "C:\Users\ghadi\Downloads\Discrete Optimization Project - Gurobi- Instance 9\Discrete Optimization Project - Instance 9-Log File.log"
Academic license - for non-commercial use only - expires 2024-07-07
Set parameter Threads to value 1
Set parameter Presolve to value 1
Set parameter Method to value 0
Set parameter TimeLimit to value 1200
Set parameter PreSparsify to value 1
